77      4       
10      10      10      10      
0       0       0       0       0       6       2       3       4       7       9       11      
2       1       7       4       2       3       5       6       10      
5       8       7       8       7       7       8       13      15      16      21      24      25      
9       7       4       6       7       6       12      16      21      23      25      30      
1       4       8       9       8       5       14      15      17      20      21      
10      7       10      6       3       5       12      15      16      17      24      
2       10      8       5       10      6       13      16      17      18      20      25      
7       4       8       5       3       4       12      17      23      30      
1       4       8       10      10      8       16      19      20      24      27      28      30      32      
7       8       10      10      10      5       15      16      23      25      28      
5       8       10      2       7       3       12      23      29      
7       8       6       4       8       6       18      19      20      27      28      32      
9       8       10      8       9       6       19      26      27      28      29      31      
8       6       8       10      8       4       16      23      28      30      
4       8       10      7       5       4       19      27      31      32      
8       6       7       10      10      5       26      29      31      39      41      
8       7       10      9       10      7       29      31      32      34      36      39      41      
2       9       8       10      5       6       26      31      35      38      39      41      
2       5       7       9       4       3       22      34      35      
8       8       7       9       10      9       31      33      35      36      37      38      39      41      46      
9       8       9       10      4       4       26      31      35      39      
4       7       3       5       10      9       33      36      37      38      39      40      41      42      46      
1       9       6       8       10      2       26      41      
10      10      4       5       10      7       33      36      37      38      40      41      42      
10      7       6       7       8       6       34      36      41      42      43      49      
1       7       10      10      8       5       33      34      36      42      43      
5       10      9       5       8       8       38      40      41      42      43      46      49      54      
9       4       9       10      7       6       35      36      38      43      46      49      
6       10      5       7       7       5       35      37      38      46      49      
6       6       6       10      10      5       36      41      42      46      49      
6       6       6       5       10      5       40      42      43      44      49      
10      10      9       7       10      5       40      42      44      49      54      
1       9       5       10      8       6       44      45      47      49      50      54      
6       10      8       9       8       6       40      44      45      46      54      55      
4       10      6       7       9       4       42      44      47      54      
4       9       9       10      10      10      47      48      50      51      52      54      55      56      57      61      
1       6       10      10      8       6       43      50      51      54      55      57      
8       5       6       10      6       5       44      47      50      51      55      
4       9       9       4       2       5       45      49      50      52      61      
1       7       8       10      7       7       47      48      52      56      57      59      61      
1       6       3       5       7       6       48      53      55      56      57      61      
6       10      5       9       5       3       45      50      55      
10      5       10      9       8       6       48      52      53      56      59      61      
5       5       8       8       9       6       48      52      57      59      61      68      
5       10      9       8       7       3       51      53      56      
5       10      5       7       7       6       58      59      61      67      68      73      
5       8       3       6       8       4       53      58      68      73      
9       6       8       5       5       5       58      62      64      65      73      
5       9       8       6       6       4       55      60      64      73      
3       8       10      7       7       6       59      60      63      64      67      73      
5       5       10      5       7       5       58      64      65      67      73      
4       4       9       10      7       5       60      63      64      67      73      
10      9       7       8       7       4       60      62      64      65      
10      6       9       6       7       4       59      64      67      73      
5       7       10      6       10      3       59      63      67      
10      10      10      9       10      4       64      67      68      69      
7       5       8       8       10      5       64      67      70      72      73      
5       7       8       6       8       2       60      63      
9       7       4       5       7       3       65      69      70      
2       6       6       10      7       3       66      69      70      
6       6       10      10      7       3       64      70      72      
5       10      10      9       8       3       66      67      70      
7       5       5       8       8       3       70      72      76      
9       10      8       6       3       1       66      
9       10      6       5       6       1       66      
7       7       5       9       9       3       71      75      76      
4       10      10      6       8       3       71      75      76      
1       8       9       10      10      2       70      72      
10      5       6       6       9       2       72      74      
5       8       9       6       5       2       74      75      
8       7       6       9       10      1       74      
7       10      6       8       10      1       75      
1       10      3       9       10      1       74      
8       10      7       7       3       1       77      
1       9       6       6       7       1       77      
7       9       10      5       4       1       77      
0       0       0       0       0       0       
